c Random CNF formula
p cnf 200 40
105 -195 42 0
21 -13 24 0
-128 -54 73 0
183 93 -80 0
103 195 -191 0
-108 -155 44 0
9 42 -177 0
-32 -147 -100 0
-188 144 44 0
-189 148 140 0
183 -94 -48 0
103 81 83 0
-76 -3 44 0
-128 -19 167 0
-54 -78 -105 0
-40 181 154 0
150 -17 117 0
165 -116 39 0
33 181 -73 0
-141 164 138 0
-2 -161 194 0
126 62 -29 0
96 -24 -7 0
47 -163 -18 0
190 99 -26 0
-50 171 -162 0
-113 107 -81 0
176 -61 -68 0
119 -132 -197 0
100 54 33 0
-158 187 157 0
-148 99 104 0
176 49 -198 0
176 41 -157 0
-27 142 -49 0
-138 162 167 0
-199 -33 171 0
75 118 135 0
-99 139 -165 0
-18 85 -123 0
